c clasp version 2.1.1
c Reading from p13.cnf
c Solving...
s SATISFIABLE

c Models        : 1+    
c Time          : 0.922s (Solving: 0.24s 1st Model: 0.24s Unsat: 0.00s)
c CPU Time      : 0.910s
c Choices       : 16326
c Conflicts     : 1103
c Restarts      : 3      (Average: 367.67 Last: 41)

c Variables     : 196471 (Eliminated: 61499 Frozen:    0)
c Constraints   : 227047 (Binary: 64.4% Ternary: 34.2% Other:  1.4%)
c Lemmas        : 1103   (Binary:  0.3% Ternary:  1.8% Other: 97.9%)
c   Conflict    : 1103   (Average Length: 34.1) 
c   Loop        : 0      (Average Length: 0.0) 
c   Other       : 0      (Average Length: 0.0)
c   Deleted     : 0     
